c random clauses
p cnf 11 32
-11 -10 -7 -2 4 5 8 9 0
-11 -10 -4 -1 5 6 8 9 0
-11 -9 -6 1 2 4 7 10 0
-11 -8 -7 -6 -5 -2 1 4 0
-11 -8 -7 -6 1 2 4 5 0
-11 -8 -6 -5 1 3 7 9 0
-11 -7 -5 -4 -1 2 3 9 0
-11 -7 -3 -2 1 4 6 9 0
-11 -7 -3 -2 1 4 8 9 0
-11 -7 -1 2 3 4 6 10 0
-11 -6 -3 -2 4 7 8 9 0
-11 -6 -3 -1 2 4 5 10 0
-10 -9 -6 -4 -1 2 5 11 0
-10 -8 -7 -6 -5 -2 3 9 0
-10 -8 -6 -2 1 4 7 9 0
-10 -8 -6 -2 3 5 9 11 0
-10 -8 -3 -2 -1 4 5 6 0
-10 -6 -5 -1 2 4 8 9 0
-10 -4 -3 1 2 5 6 9 0
-10 -3 1 4 5 6 7 9 0
-9 -7 -6 -5 -1 4 10 11 0
-9 -7 -4 1 2 3 10 11 0
-9 -5 -2 -1 3 4 6 7 0
-8 -7 -6 -3 5 9 10 11 0
-8 -7 -5 -1 3 4 9 10 0
-8 -6 -2 1 3 4 10 11 0
-7 -6 1 2 4 5 8 10 0
-7 -6 1 2 5 8 9 10 0
-7 -3 1 5 6 8 9 10 0
-6 -5 -4 -2 -1 8 9 10 0
-6 -4 1 2 7 8 10 11 0
-5 2 3 4 7 8 9 11 0
